
Gurobi 10.0.3 (win64) logging started Sat Nov  9 17:21:15 2024

Set parameter LogFile to value "r6.AS.lp.log"
Gurobi Optimizer version 10.0.3 build v10.0.3rc0 (win64)

CPU model: 12th Gen Intel(R) Core(TM) i5-1240P, instruction set [SSE2|AVX|AVX2]
Thread count: 12 physical cores, 16 logical processors, using up to 2 threads

Optimize a model with 2065 rows, 1072 columns and 11872 nonzeros
Model fingerprint: 0xa86a893d
Variable types: 0 continuous, 1072 integer (1072 binary)
Coefficient statistics:
  Matrix range     [1e+00, 7e+00]
  Objective range  [1e+00, 1e+00]
  Bounds range     [1e+00, 1e+00]
  RHS range        [1e+00, 9e+00]
Presolve removed 464 rows and 448 columns
Presolve time: 0.03s
Presolved: 1601 rows, 624 columns, 10736 nonzeros
Variable types: 0 continuous, 624 integer (624 binary)
Found heuristic solution: objective 46.0000000

Root relaxation: objective 0.000000e+00, 2 iterations, 0.00 seconds (0.00 work units)

    Nodes    |    Current Node    |     Objective Bounds      |     Work
 Expl Unexpl |  Obj  Depth IntInf | Incumbent    BestBd   Gap | It/Node Time

     0     0    0.00000    0    1   46.00000    0.00000   100%     -    0s
H    0     0                      10.0000000    0.00000   100%     -    0s
     0     0    0.00000    0    1   10.00000    0.00000   100%     -    0s
     0     0    0.00000    0    1   10.00000    0.00000   100%     -    0s
     0     0    0.00000    0    1   10.00000    0.00000   100%     -    0s
     0     0    0.00000    0    1   10.00000    0.00000   100%     -    0s
     0     0    0.00000    0    1   10.00000    0.00000   100%     -    0s
     0     0    0.00000    0    1   10.00000    0.00000   100%     -    0s
     0     0    0.00000    0    1   10.00000    0.00000   100%     -    0s
     0     2    1.00000    0    1   10.00000    1.00000  90.0%     -    0s
H   67    82                       8.0000000    1.00000  87.5%  11.0    0s
H  124   108                       6.0000000    1.00000  83.3%  11.5    0s

Cutting planes:
  Gomory: 1
  Cover: 5

Explored 12956 nodes (133677 simplex iterations) in 3.91 seconds (5.18 work units)
Thread count was 2 (of 16 available processors)

Solution count 4: 6 8 10 46 

Optimal solution found (tolerance 1.00e-04)
Best objective 6.000000000000e+00, best bound 6.000000000000e+00, gap 0.0000%

Gurobi 10.0.3 (win64) logging started Sat Nov  9 17:45:34 2024

Set parameter LogFile to value "r6.AS.lp.log"
Gurobi Optimizer version 10.0.3 build v10.0.3rc0 (win64)

CPU model: 12th Gen Intel(R) Core(TM) i5-1240P, instruction set [SSE2|AVX|AVX2]
Thread count: 12 physical cores, 16 logical processors, using up to 16 threads

Optimize a model with 2065 rows, 1072 columns and 11872 nonzeros
Model fingerprint: 0xa86a893d
Variable types: 0 continuous, 1072 integer (1072 binary)
Coefficient statistics:
  Matrix range     [1e+00, 7e+00]
  Objective range  [1e+00, 1e+00]
  Bounds range     [1e+00, 1e+00]
  RHS range        [1e+00, 9e+00]
Presolve removed 464 rows and 448 columns
Presolve time: 0.03s
Presolved: 1601 rows, 624 columns, 10736 nonzeros
Variable types: 0 continuous, 624 integer (624 binary)
Found heuristic solution: objective 46.0000000

Root relaxation: objective 0.000000e+00, 2 iterations, 0.00 seconds (0.00 work units)

    Nodes    |    Current Node    |     Objective Bounds      |     Work
 Expl Unexpl |  Obj  Depth IntInf | Incumbent    BestBd   Gap | It/Node Time

     0     0    0.00000    0    1   46.00000    0.00000   100%     -    0s
H    0     0                      10.0000000    0.00000   100%     -    0s
     0     0    0.00000    0    1   10.00000    0.00000   100%     -    0s
H    0     0                       6.0000000    0.00000   100%     -    0s
     0     0    0.00000    0    1    6.00000    0.00000   100%     -    0s
     0     0    0.00000    0    1    6.00000    0.00000   100%     -    0s
     0     0    0.66667    0    1    6.00000    0.66667  88.9%     -    0s
     0     0    1.00000    0    1    6.00000    1.00000  83.3%     -    0s
     0     0    1.00000    0    1    6.00000    1.00000  83.3%     -    0s
     0     0    1.00000    0    1    6.00000    1.00000  83.3%     -    0s
     0     2    1.00000    0    1    6.00000    1.00000  83.3%     -    0s

Cutting planes:
  Gomory: 2
  Cover: 377
  Inf proof: 15

Explored 7619 nodes (257240 simplex iterations) in 2.37 seconds (2.17 work units)
Thread count was 16 (of 16 available processors)

Solution count 3: 6 10 46 

Optimal solution found (tolerance 1.00e-04)
Best objective 6.000000000000e+00, best bound 6.000000000000e+00, gap 0.0000%

Gurobi 10.0.3 (win64) logging started Sat Nov  9 17:45:42 2024

Set parameter LogFile to value "r6.AS.lp.log"
Gurobi Optimizer version 10.0.3 build v10.0.3rc0 (win64)

CPU model: 12th Gen Intel(R) Core(TM) i5-1240P, instruction set [SSE2|AVX|AVX2]
Thread count: 12 physical cores, 16 logical processors, using up to 16 threads

Optimize a model with 2065 rows, 1072 columns and 11872 nonzeros
Model fingerprint: 0xa86a893d
Variable types: 0 continuous, 1072 integer (1072 binary)
Coefficient statistics:
  Matrix range     [1e+00, 7e+00]
  Objective range  [1e+00, 1e+00]
  Bounds range     [1e+00, 1e+00]
  RHS range        [1e+00, 9e+00]
Presolve removed 464 rows and 448 columns
Presolve time: 0.03s
Presolved: 1601 rows, 624 columns, 10736 nonzeros
Variable types: 0 continuous, 624 integer (624 binary)
Found heuristic solution: objective 46.0000000

Root relaxation: objective 0.000000e+00, 2 iterations, 0.00 seconds (0.00 work units)

    Nodes    |    Current Node    |     Objective Bounds      |     Work
 Expl Unexpl |  Obj  Depth IntInf | Incumbent    BestBd   Gap | It/Node Time

     0     0    0.00000    0    1   46.00000    0.00000   100%     -    0s
H    0     0                      10.0000000    0.00000   100%     -    0s
     0     0    0.00000    0    1   10.00000    0.00000   100%     -    0s
H    0     0                       6.0000000    0.00000   100%     -    0s
     0     0    0.00000    0    1    6.00000    0.00000   100%     -    0s
     0     0    0.00000    0    1    6.00000    0.00000   100%     -    0s
     0     0    0.66667    0    1    6.00000    0.66667  88.9%     -    0s
     0     0    1.00000    0    1    6.00000    1.00000  83.3%     -    0s
     0     0    1.00000    0    1    6.00000    1.00000  83.3%     -    0s
     0     0    1.00000    0    1    6.00000    1.00000  83.3%     -    0s
     0     2    1.00000    0    1    6.00000    1.00000  83.3%     -    0s

Cutting planes:
  Gomory: 2
  Cover: 377
  Inf proof: 15

Explored 7619 nodes (257240 simplex iterations) in 2.67 seconds (2.17 work units)
Thread count was 16 (of 16 available processors)

Solution count 3: 6 10 46 

Optimal solution found (tolerance 1.00e-04)
Best objective 6.000000000000e+00, best bound 6.000000000000e+00, gap 0.0000%

Gurobi 10.0.3 (win64) logging started Sat Nov  9 17:45:49 2024

Set parameter LogFile to value "r6.AS.lp.log"
Gurobi Optimizer version 10.0.3 build v10.0.3rc0 (win64)

CPU model: 12th Gen Intel(R) Core(TM) i5-1240P, instruction set [SSE2|AVX|AVX2]
Thread count: 12 physical cores, 16 logical processors, using up to 16 threads

Optimize a model with 2065 rows, 1072 columns and 11872 nonzeros
Model fingerprint: 0xa86a893d
Variable types: 0 continuous, 1072 integer (1072 binary)
Coefficient statistics:
  Matrix range     [1e+00, 7e+00]
  Objective range  [1e+00, 1e+00]
  Bounds range     [1e+00, 1e+00]
  RHS range        [1e+00, 9e+00]
Presolve removed 464 rows and 448 columns
Presolve time: 0.02s
Presolved: 1601 rows, 624 columns, 10736 nonzeros
Variable types: 0 continuous, 624 integer (624 binary)
Found heuristic solution: objective 46.0000000

Root relaxation: objective 0.000000e+00, 2 iterations, 0.00 seconds (0.00 work units)

    Nodes    |    Current Node    |     Objective Bounds      |     Work
 Expl Unexpl |  Obj  Depth IntInf | Incumbent    BestBd   Gap | It/Node Time

     0     0    0.00000    0    1   46.00000    0.00000   100%     -    0s
H    0     0                      10.0000000    0.00000   100%     -    0s
     0     0    0.00000    0    1   10.00000    0.00000   100%     -    0s
H    0     0                       6.0000000    0.00000   100%     -    0s
     0     0    0.00000    0    1    6.00000    0.00000   100%     -    0s
     0     0    0.00000    0    1    6.00000    0.00000   100%     -    0s
     0     0    0.66667    0    1    6.00000    0.66667  88.9%     -    0s
     0     0    1.00000    0    1    6.00000    1.00000  83.3%     -    0s
     0     0    1.00000    0    1    6.00000    1.00000  83.3%     -    0s
     0     0    1.00000    0    1    6.00000    1.00000  83.3%     -    0s
     0     2    1.00000    0    1    6.00000    1.00000  83.3%     -    0s

Cutting planes:
  Gomory: 2
  Cover: 361
  Inf proof: 14

Explored 6708 nodes (201061 simplex iterations) in 1.70 seconds (1.58 work units)
Thread count was 16 (of 16 available processors)

Solution count 3: 6 10 46 

Solve interrupted
Best objective 6.000000000000e+00, best bound 4.000000000000e+00, gap 33.3333%

Gurobi 10.0.3 (win64) logging started Sat Nov  9 17:46:02 2024

Set parameter LogFile to value "r6.AS.lp.log"
Gurobi Optimizer version 10.0.3 build v10.0.3rc0 (win64)

CPU model: 12th Gen Intel(R) Core(TM) i5-1240P, instruction set [SSE2|AVX|AVX2]
Thread count: 12 physical cores, 16 logical processors, using up to 16 threads

Optimize a model with 2065 rows, 1072 columns and 11872 nonzeros
Model fingerprint: 0xa86a893d
Variable types: 0 continuous, 1072 integer (1072 binary)
Coefficient statistics:
  Matrix range     [1e+00, 7e+00]
  Objective range  [1e+00, 1e+00]
  Bounds range     [1e+00, 1e+00]
  RHS range        [1e+00, 9e+00]
Presolve removed 464 rows and 448 columns
Presolve time: 0.03s
Presolved: 1601 rows, 624 columns, 10736 nonzeros
Variable types: 0 continuous, 624 integer (624 binary)
Found heuristic solution: objective 46.0000000

Root relaxation: objective 0.000000e+00, 2 iterations, 0.00 seconds (0.00 work units)

    Nodes    |    Current Node    |     Objective Bounds      |     Work
 Expl Unexpl |  Obj  Depth IntInf | Incumbent    BestBd   Gap | It/Node Time

     0     0    0.00000    0    1   46.00000    0.00000   100%     -    0s
H    0     0                      10.0000000    0.00000   100%     -    0s
     0     0    0.00000    0    1   10.00000    0.00000   100%     -    0s
H    0     0                       6.0000000    0.00000   100%     -    0s
     0     0    0.00000    0    1    6.00000    0.00000   100%     -    0s
     0     0    0.00000    0    1    6.00000    0.00000   100%     -    0s
     0     0    0.66667    0    1    6.00000    0.66667  88.9%     -    0s
     0     0    1.00000    0    1    6.00000    1.00000  83.3%     -    0s
     0     0    1.00000    0    1    6.00000    1.00000  83.3%     -    0s
     0     0    1.00000    0    1    6.00000    1.00000  83.3%     -    0s
     0     2    1.00000    0    1    6.00000    1.00000  83.3%     -    0s

Cutting planes:
  Gomory: 2
  Cover: 377
  Inf proof: 15

Explored 7619 nodes (257240 simplex iterations) in 2.78 seconds (2.17 work units)
Thread count was 16 (of 16 available processors)

Solution count 3: 6 10 46 

Optimal solution found (tolerance 1.00e-04)
Best objective 6.000000000000e+00, best bound 6.000000000000e+00, gap 0.0000%
